feasible solution found by trivial heuristic after 0.0 seconds, objective value 0.000000e+00
presolving:
(round 1, fast)       1236 del vars, 1 del conss, 0 add conss, 0 chg bounds, 0 chg sides, 0 chg coeffs, 0 upgd conss, 0 impls, 15738 clqs
   (0.1s) running MILP presolver
   (0.2s) MILP presolver found nothing
(round 2, exhaustive) 1236 del vars, 1 del conss, 0 add conss, 0 chg bounds, 0 chg sides, 0 chg coeffs, 18137 upgd conss, 0 impls, 15738 clqs
   (0.3s) probing: 51/2538 (2.0%) - 0 fixings, 0 aggregations, 0 implications, 0 bound changes
   (0.3s) probing aborted: 50/50 successive totally useless probings
   (0.4s) symmetry computation started: requiring (bin +, int -, cont +), (fixed: bin -, int +, cont -)
   (0.4s) no symmetry present
presolving (3 rounds: 3 fast, 2 medium, 2 exhaustive):
 1236 deleted vars, 1 deleted constraints, 0 added constraints, 0 tightened bounds, 0 added holes, 0 changed sides, 0 changed coefficients
 0 implications, 15738 cliques
presolved problem has 2538 variables (2538 bin, 0 int, 0 impl, 0 cont) and 18137 constraints
  15738 constraints of type <setppc>
   2399 constraints of type <logicor>
Presolving Time: 0.40
transformed 1/2 original solutions to the transformed problem space

 time | node  | left  |LP iter|LP it/n|mem/heur|mdpt |vars |cons |rows |cuts |sepa|confs|strbr|  dualbound   | primalbound  |  gap   | compl. 
p 0.5s|     1 |     0 |     0 |     - |   locks|   0 |2538 |  18k|  18k|   0 |  0 |   0 |   0 | 6.862000e+03 | 5.720000e+02 |1099.65%| unknown
i 0.5s|     1 |     0 |     0 |     - |  oneopt|   0 |2538 |  18k|  18k|   0 |  0 |   0 |   0 | 6.862000e+03 | 6.090000e+02 |1026.77%| unknown
  1.6s|     1 |     0 |  1583 |     - |   101M |   0 |2538 |  18k|  18k|   0 |  0 |   0 |   0 | 1.181737e+03 | 6.090000e+02 |  94.05%| unknown
  1.8s|     1 |     0 |  1747 |     - |   105M |   0 |2538 |  18k|  18k|   1 |  1 |   0 |   0 | 1.178637e+03 | 6.090000e+02 |  93.54%| unknown
  2.0s|     1 |     0 |  1938 |     - |   107M |   0 |2538 |  18k|  18k|   2 |  2 |   0 |   0 | 1.175173e+03 | 6.090000e+02 |  92.97%| unknown
  2.2s|     1 |     0 |  2120 |     - |   111M |   0 |2538 |  18k|  18k|   3 |  3 |   0 |   0 | 1.173774e+03 | 6.090000e+02 |  92.74%| unknown
  2.4s|     1 |     0 |  2251 |     - |   113M |   0 |2538 |  18k|  18k|   4 |  4 |   0 |   0 | 1.173235e+03 | 6.090000e+02 |  92.65%| unknown
  2.6s|     1 |     0 |  2456 |     - |   116M |   0 |2538 |  18k|  18k|   5 |  5 |   0 |   0 | 1.172577e+03 | 6.090000e+02 |  92.54%| unknown
  2.8s|     1 |     0 |  2624 |     - |   120M |   0 |2538 |  18k|  18k|   6 |  6 |   0 |   0 | 1.172187e+03 | 6.090000e+02 |  92.48%| unknown
  2.9s|     1 |     0 |  2753 |     - |   122M |   0 |2538 |  18k|  18k|   7 |  7 |   0 |   0 | 1.171970e+03 | 6.090000e+02 |  92.44%| unknown
  3.1s|     1 |     0 |  2928 |     - |   126M |   0 |2538 |  18k|  18k|   8 |  8 |   0 |   0 | 1.171715e+03 | 6.090000e+02 |  92.40%| unknown
  3.3s|     1 |     0 |  3099 |     - |   128M |   0 |2538 |  18k|  18k|   9 |  9 |   0 |   0 | 1.171322e+03 | 6.090000e+02 |  92.34%| unknown
  3.5s|     1 |     0 |  3256 |     - |   132M |   0 |2538 |  18k|  18k|  10 | 10 |   0 |   0 | 1.171094e+03 | 6.090000e+02 |  92.30%| unknown
  3.6s|     1 |     0 |  3413 |     - |   134M |   0 |2538 |  18k|  18k|  11 | 11 |   0 |   0 | 1.170904e+03 | 6.090000e+02 |  92.27%| unknown
  3.7s|     1 |     0 |  3497 |     - |   136M |   0 |2538 |  18k|  18k|  12 | 12 |   0 |   0 | 1.170809e+03 | 6.090000e+02 |  92.25%| unknown
 time | node  | left  |LP iter|LP it/n|mem/heur|mdpt |vars |cons |rows |cuts |sepa|confs|strbr|  dualbound   | primalbound  |  gap   | compl. 
  3.8s|     1 |     0 |  3565 |     - |   138M |   0 |2538 |  18k|  18k|  13 | 13 |   0 |   0 | 1.170750e+03 | 6.090000e+02 |  92.24%| unknown
  3.9s|     1 |     0 |  3617 |     - |   140M |   0 |2538 |  18k|  18k|  14 | 14 |   0 |   0 | 1.170730e+03 | 6.090000e+02 |  92.24%| unknown
  4.0s|     1 |     0 |  3637 |     - |   142M |   0 |2538 |  18k|  18k|  15 | 15 |   0 |   0 | 1.170719e+03 | 6.090000e+02 |  92.24%| unknown
  4.0s|     1 |     0 |  3664 |     - |   144M |   0 |2538 |  18k|  18k|  16 | 16 |   0 |   0 | 1.170700e+03 | 6.090000e+02 |  92.23%| unknown
  4.1s|     1 |     0 |  3735 |     - |   146M |   0 |2538 |  18k|  18k|  18 | 17 |   0 |   0 | 1.170555e+03 | 6.090000e+02 |  92.21%| unknown
  4.2s|     1 |     0 |  3807 |     - |   148M |   0 |2538 |  18k|  18k|  20 | 18 |   0 |   0 | 1.170404e+03 | 6.090000e+02 |  92.18%| unknown
  4.3s|     1 |     0 |  3857 |     - |   150M |   0 |2538 |  18k|  18k|  21 | 19 |   0 |   0 | 1.170375e+03 | 6.090000e+02 |  92.18%| unknown
d 5.1s|     1 |     0 |  4831 |     - |farkasdi|   0 |2538 |  18k|  18k|   0 | 21 |   0 |   0 | 1.170375e+03 | 8.210000e+02 |  42.55%| unknown
L19.6s|     1 |     0 |  4831 |     - |    rens|   0 |2538 |  18k|  18k|  21 | 21 |   0 |   0 | 1.170375e+03 | 8.740000e+02 |  33.91%| unknown
 19.8s|     1 |     0 |  4831 |     - |   152M |   0 |2538 |  18k|  18k|  21 | 21 |   0 |   0 | 1.170375e+03 | 8.740000e+02 |  33.91%| unknown
 19.8s|     1 |     0 |  4850 |     - |   152M |   0 |2538 |  18k|  18k|  22 | 22 |   0 |   0 | 1.170363e+03 | 8.740000e+02 |  33.91%| unknown
 37.3s|     1 |     2 |  4850 |     - |   152M |   0 |2538 |  18k|  18k|  22 | 23 |   0 |  24 | 1.156626e+03 | 8.740000e+02 |  32.34%| unknown

SCIP Status        : problem is solved [optimal solution found]
Solving Time (sec) : 106.25
Solving Nodes      : 9
Primal Bound       : +8.74000000000000e+02 (59 solutions)
Dual Bound         : +8.74000000000000e+02
Gap                : 0.00 %
Solve Status: optimal
Solve Time: 106.26 seconds
